c --- [ banner ] -------------------------------------------------------------
c 
c CaDiCaL Radically Simplified CDCL SAT Solver
c Copyright (c) 2016-2021 A. Biere, M. Fleury, N. Froleyks
c 
c Version 1.5.2 a5f15211db36c3956764e18194dd5bd63bf3b5e6
c g++ (GCC) 9.3.0 -Wall -Wextra -O3 -DNDEBUG
c Fri Oct 21 01:27:37 EDT 2022 Linux gra-login3 3.10.0-1160.66.1.el7.x86_64 x86_64
c 
c --- [ limit ] --------------------------------------------------------------
c 
c setting conflict limit to 200000 conflicts (due to '200000')
c 
c --- [ parsing input ] ------------------------------------------------------
c 
c reading DIMACS file from '33.cubes4796.adj'
c opening file to read '33.cubes4796.adj'
c found 'p cnf 6160 1595483' header
c parsed 1595483 clauses in 18.96 seconds process time
c closing file '33.cubes4796.adj'
c after reading 1457566833 bytes 1390.0 MB
c 
c --- [ options ] ------------------------------------------------------------
c 
c all options are set to their default value
c 
c --- [ solving ] ------------------------------------------------------------
c 
c time measured in process time since initialization
c 
c  seconds    reductions  redundant   irredundant
c          MB     restarts       trail       variables
c            level   conflicts       glue         remaining
c 
c * 18.97 1379  0 0   0    0    0  0% 0 1595422 2363 38%
c { 19.64 1423  0 0   0    0    0  0% 0 1595422 2363 38%
c i 23.03 1506 249 0  11   76   45 26% 8 1595422 2362 38%
c i 23.10 1507 246 0  11   77   45 26% 8 1595422 2361 38%
c i 25.65 1525 130 0  39  181  142 27% 21 1595422 2360 38%
c i 25.91 1526 122 0  43  200  160 28% 23 1595422 2359 38%
c i 28.35 1539 107 0  66  299  246 28% 25 1595422 2358 38%
c - 32.22 1499 107 1  67  300  247 28% 25 485737 2358 38%
c i 32.57 1500 102 1  71  323  263 27% 25 485737 2357 38%
c i 32.71 1501 101 1  71  331  269 28% 24 485737 2356 38%
c i 32.79 1501 99 1  71  338  275 28% 24 485737 2355 38%
c i 32.85 1501 97 1  71  349  283 28% 24 485737 2354 38%
c i 32.99 1501 95 1  71  362  294 28% 24 485737 2353 38%
c i 33.17 1501 88 1  71  403  317 28% 25 485737 2352 38%
c i 33.17 1501 88 1  71  405  318 28% 24 485737 2351 38%
c i 33.36 1501 80 1  71  460  354 28% 24 485737 2350 38%
c i 33.47 1501 77 1  71  485  373 28% 24 485737 2349 38%
c i 33.70 1501 73 1  75  560  429 28% 24 485737 2348 38%
c i 33.76 1501 72 1  78  574  440 28% 24 485737 2347 38%
c i 33.78 1501 72 1  79  578  441 28% 24 485737 2346 38%
c 
c  seconds    reductions  redundant   irredundant
c          MB     restarts       trail       variables
c            level   conflicts       glue         remaining
c 
c i 34.38 1502 70 1  85  646  501 28% 24 485737 2339 38%
c i 34.47 1502 68 1  86  669  510 28% 24 485737 2337 38%
c i 34.47 1502 68 1  86  670  510 28% 24 485737 2336 38%
c i 35.44 1503 68 1  98  743  571 28% 25 485737 2335 38%
c i 35.47 1503 69 1  99  751  578 28% 26 485737 2334 38%
c i 35.49 1503 69 1 100  753  579 28% 26 485737 2333 38%
c i 35.86 1503 68 1 112  799  618 28% 27 485737 2332 38%
c i 35.91 1503 68 1 113  801  619 28% 27 485737 2331 38%
c i 35.97 1503 68 1 113  802  619 28% 27 485737 2330 38%
c i 37.36 1505 68 1 133  901  710 28% 27 485737 2329 38%
c i 37.69 1505 69 1 136  928  732 28% 28 485737 2328 38%
c } 38.64 1505 68 1 142 1001  776 28% 28 485737 2328 38%
c [ 38.64 1505  0 1 142 1001  776  0% 0 485737 2328 38%
c O 38.64 1505  0 1 142 1002  776 11% 0 485737 2328 38%
c i 38.64 1505  0 1 142 1002  776 11% 0 485737 2277 37%
c i 39.09 1505 29 1 142 1046  807 30% 22 485737 2276 37%
c i 39.26 1506 33 1 142 1117  859 31% 25 485737 2275 37%
c i 39.27 1506 33 1 142 1118  859 31% 25 485737 2274 37%
c - 40.53 1619 34 2 142 1311  858 31% 29 484109 2274 37%
c i 41.08 1619 32 2 142 1432  935 31% 27 484109 2273 37%
c 
c  seconds    reductions  redundant   irredundant
c          MB     restarts       trail       variables
c            level   conflicts       glue         remaining
c 
c - 42.88 1565 29 3 143 2827 1500 31% 25 484106 2273 37%
c ] 43.45 1564 29 3 143 3001 1607 53% 25 484106 2273 37%
c { 43.45 1564 68 3 143 3001 1607 75% 28 484106 2273 37%
c F 43.57 1564 68 3 144 3003 1609 75% 27 484106 2273 37%
c i 44.66 1565 63 3 162 3206 1761 71% 27 484106 2272 37%
c i 45.42 1565 64 3 176 3259 1810 70% 27 484106 2271 37%
c i 45.55 1565 63 3 176 3274 1822 69% 27 484106 2270 37%
c i 45.68 1565 63 3 176 3290 1837 69% 27 484106 2269 37%
c i 45.79 1564 63 3 176 3309 1854 69% 27 484106 2268 37%
c i 46.01 1564 61 3 176 3371 1898 67% 27 484106 2267 37%
c i 47.64 1564 45 3 176 4185 2439 60% 22 484106 2266 37%
c i 47.85 1564 44 3 176 4259 2494 60% 21 484106 2265 37%
c i 48.32 1564 42 3 177 4476 2668 59% 21 484106 2264 37%
c - 53.49 1561 46 4 267 4849 2125 57% 23 484079 2264 37%
c 2 55.36 1561 46 4 283 5000 3113 56% 24 484067 2240 36%
c p 62.53 1561 46 4 283 5000 5457 56% 24 484067 2210 36%
c d 63.22 1561 46 4 283 5000 5422 56% 24 405996 2208 36%
c # 66.29 1561 42 4 322 6004 6169 53% 23 405994 2207 36%
c } 67.65 1561 39 4 359 7001 6833 53% 22 405994 2207 36%
c [ 67.65 1561 29 4 359 7001 6833 53% 25 405994 2207 36%
c 
c  seconds    reductions  redundant   irredundant
c          MB     restarts       trail       variables
c            level   conflicts       glue         remaining
c 
c - 68.43 1520 27 5 360 7376 2909 52% 24 405994 2207 36%
c I 70.00 1520 23 5 361 10005 4287 53% 20 405994 2207 36%
c - 71.55 1361 25 6 362 10273 2993 53% 22 405994 2207 36%
c - 77.76 1522 33 7 364 13650 4049 50% 26 405994 2207 36%
c p 81.98 1521 35 7 364 15000 8524 50% 28 405994 2207 36%
c ] 82.07 1522 35 7 364 15001 8525 50% 28 405994 2207 36%
c { 82.07 1522 39 7 364 15001 8525 53% 22 405994 2207 36%
c B 82.33 1522 39 7 364 15006 8530 53% 22 405994 2207 36%
c - 85.78 1361 33 8 445 17510 4725 53% 21 405994 2207 36%
c s 86.51 1361 31 8 447 18800 5124 53% 20 404589 2207 36%
c v 92.10 1361 31 8 447 18800 5124 53% 20 404572 2207 36%
c t 92.27 1361 31 8 447 18800 5116 53% 20 404565 2207 36%
c e 93.89 1363 31 8 447 18800 4924 53% 20 402413 977 16%
c s 94.02 1363 31 8 447 18800 4924 53% 20 401902 977 16%
c W 97.23 1523 28 8 448 21010 6302 72% 18 401902 977 16%
c - 97.76 1363 26 9 448 21853 5235 71% 18 401902 977 16%
c } 107.94 1363 27 9 756 26431 8393 68% 19 401902 977 16%
c 1 107.94 1363 27 9 756 26431 8393 68% 19 401902 977 16%
c 
c --- [ writing output ] -----------------------------------------------------
c 
c writing simplified CNF to DIMACS file 'simp/33.cubes4796.adj.simp1'
c * 107.94 1363 27 9 756 26431 8393 68% 19 401902 977 16%
c opening file to write 'simp/33.cubes4796.adj.simp1'
c writing 'p cnf 6160 401902' header
c closing file 'simp/33.cubes4796.adj.simp1'
c after writing 183858719 bytes 175.3 MB
c wrote 401902 clauses in 1.47 seconds process time
c 
c --- [ writing extension ] --------------------------------------------------
c 
c writing extension stack to 'simp/33.cubes4796.adj.ext1'
c opening file to write 'simp/33.cubes4796.adj.ext1'
c closing file 'simp/33.cubes4796.adj.ext1'
c after writing 80696 bytes 0.1 MB
c wrote 3642 witnesses in 0.00 seconds process time
c 
c --- [ result ] -------------------------------------------------------------
c 
s SATISFIABLE
c 
c --- [ run-time profiling ] -------------------------------------------------
c 
c process time taken by individual solving procedures
c (percentage relative to process time for solving)
c 
c        68.30   76.76% search
c        50.99   57.31% unstable
c        20.68   23.24% simplify
c        18.96   21.31% parse
c        16.41   18.44% stable
c         9.87   11.09% probe
c         5.70    6.41% vivify
c         2.98    3.35% elim
c         0.68    0.76% lucky
c         0.27    0.30% subsume
c         0.22    0.25% walk
c         0.13    0.15% ternary
c   =================================
c        88.98   81.32% solve
c 
c last line shows process time for solving
c (percentage relative to total process time)
c 
c --- [ statistics ] ---------------------------------------------------------
c 
c chronological:              4915        18.60 %  of conflicts
c conflicts:                 26431       297.05    per second
c decisions:                 76648       861.44    per second
c eliminated:                 1230        19.97 %  of all variables
c fixed:                       800        12.99 %  of all variables
c learned:                   25836        97.75 %  per conflict
c learned_lits:            4822001       100.00 %  learned literals
c minimized:                     0         0.00 %  learned literals
c shrunken:                3138246        65.08 %  learned literals
c minishrunken:             381324         7.91 %  learned literals
c propagations:            3280045         0.04 M  per second
c reduced:                    9322        35.27 %  per conflict
c rephased:                      6      4405.17    interval
c restarts:                    756        34.96    interval
c stabilizing:                   2        37.83 %  of conflicts
c substituted:                   9         0.15 %  of all variables
c subsumed:                   9920         0.29 %  of all clauses
c strengthened:               4503         0.13 %  of all clauses
c ternary:                    1785         0.56 %  of resolved
c vivified:                     28         0.00 %  of all clauses
c walked:                        1     26431.00    interval
c weakened:                   2842         2.99    average size
c 
c seconds are measured in process time for solving
c 
c --- [ resources ] ----------------------------------------------------------
c 
c total process time since initialization:       109.42    seconds
c total real time since initialization:          111.51    seconds
c maximum resident set size of process:         1769.15    MB
c 
c --- [ shutting down ] ------------------------------------------------------
c 
c exit 10
WARNING! DIMACS header mismatch: wrong number of variables.
============================[ Problem Statistics ]=============================
|                                                                             |
|  Number of variables:          3755                                         |
|  Number of clauses:          401902                                         |
|  Parse time:                   2.47 s                                       |
|  Simplification time:          0.08 s                                       |
|                                                                             |
============================[ Search Statistics ]====================================================
| Conflicts |          ORIGINAL         |          LEARNT          | Num Sols |      SUBGRAPHS      |
|           |    Vars  Clauses Literals |    Limit  Clauses Lit/Cl |          | Canonical Noncanon. |
=====================================================================================================
|       212 |    3663   402014 39925299 |     2000      212     70 |        0 |        42       112 |
|       366 |    3663   402018 39925392 |     2000      366     94 |        0 |        44       116 |
|       598 |    3663   402025 39925577 |     2000      598    113 |        0 |        46       123 |
|       948 |    3663   402038 39925884 |     2000      948    118 |        0 |        50       136 |
|      1458 |    3663   402042 39925981 |     2000     1458    119 |        0 |        54       140 |
|      2271 |    3663   402096 39927177 |     3602     1273     71 |        0 |       109       194 |
|      3616 |    3663   402302 39930300 |     3602     2618     77 |        0 |       189       400 |
|      5420 |    3663   402398 39932850 |     5002     2622     53 |        0 |       279       496 |
|      8276 |    3663   402692 39938043 |     6307     2983     41 |        0 |       359       790 |
|     12473 |    3663   403045 39944711 |     7555     4028     43 |        0 |       448      1143 |
|     18565 |    3663   403371 39951167 |     8784     6349     55 |        0 |       575      1469 |
|     27731 |    3663   403888 39961444 |    11203     6134     38 |        0 |       727      1986 |
|     40927 |    3663   404110 39967328 |    13609     7536     40 |        0 |       841      2208 |
|     61335 |    3663   405057 39984547 |    16005    13740     69 |        0 |      1066      3155 |
|     93486 |    3663   408016 40032332 |    20811    10297     27 |        0 |      1642      6114 |
|    138681 |    3663   409422 40060535 |    24408    22489     63 |        0 |      2169      7520 |
|    205444 |    3663   410501 40081659 |    30420    22264     61 |        0 |      2477      8599 |
|    304439 |    3663   410970 40094763 |    37604    21043     44 |        0 |      2746      9068 |
|    453259 |    3663   412001 40119908 |    46015    25674     47 |        0 |      3206     10099 |
|    676441 |    3663   413500 40157627 |    55618    48059     77 |        0 |      3922     11598 |
|   1010261 |    3663   414795 40198526 |    68819    43080     61 |        0 |      4555     12893 |
|   1510341 |    3663   416087 40235505 |    84410    49151     55 |        0 |      5128     14185 |
|   2262452 |    3663   420016 40339808 |   103629    54081     47 |        1 |      6468     18113 |
|   3398544 |    3663   433834 40618673 |   126414   103358     68 |        1 |     10374     31931 |
|   5097969 |    3663   449848 40970673 |   155217   120386     65 |        1 |     16151     47945 |
|   7645393 |    3663   472156 41486692 |   190020   173813     72 |        1 |     21864     70253 |
|  11452911 |    3663   491999 41893337 |   233222   183333     61 |        1 |     27679     90096 |
|  17161055 |    3630   464265 41364513 |   285248   192703     61 |        1 |     36790    116728 |
=====================================================================================================
Number of solutions   : 1
Canonical subgraphs   : 39113          (13 /sec)
          order  3    : 1              (200000 /sec)
          order  4    : 1              (500000 /sec)
          order  5    : 1              (200000 /sec)
          order  6    : 1              (55556 /sec)
          order  7    : 1              (7937 /sec)
          order  8    : 2              (1361 /sec)
          order  9    : 6              (315 /sec)
          order 10    : 23             (90 /sec)
          order 11    : 105            (28 /sec)
          order 12    : 1052           (14 /sec)
          order 13    : 5552           (12 /sec)
          order 14    : 9513           (12 /sec)
          order 15    : 17877          (14 /sec)
          order 16    : 2632           (17 /sec)
          order 17    : 1361           (12 /sec)
          order 18    : 567            (9 /sec)
          order 19    : 162            (11 /sec)
          order 20    : 126            (11 /sec)
          order 21    : 129            (11 /sec)
          order 22    : 1              (1 /sec)
Noncanonical subgraphs: 127021         (427 /sec)
          order  3    : 0              (-nan /sec)
          order  4    : 0              (-nan /sec)
          order  5    : 0              (-nan /sec)
          order  6    : 0              (-nan /sec)
          order  7    : 0              (-nan /sec)
          order  8    : 0              (-nan /sec)
          order  9    : 0              (-nan /sec)
          order 10    : 0              (-nan /sec)
          order 11    : 0              (-nan /sec)
          order 12    : 0              (-nan /sec)
          order 13    : 20302          (3565 /sec)
          order 14    : 41139          (1140 /sec)
          order 15    : 45050          (679 /sec)
          order 16    : 19075          (121 /sec)
          order 17    : 1083           (94 /sec)
          order 18    : 231            (36 /sec)
          order 19    : 0              (-nan /sec)
          order 20    : 0              (-nan /sec)
          order 21    : 0              (-nan /sec)
Canonicity checking   : 3033.9 s
Noncanonicity checking: 297.513 s
Total canonicity time : 3331.41 s
database reductions   : 263
restarts              : 32759
conflicts             : 21346654       (1105 /sec)
decisions             : 25913222       (0.00 % random) (1341 /sec)
propagations          : 1091288591     (56492 /sec)
conflict literals     : 2345313130     (55.33 % deleted)
actual reward         : 0.239387
Memory used           : 664.00 MB
CPU time              : 19317.7 s

UNSATISFIABLE
